c Result of efficient AIG-to-CNF conversion using package CNF
p cnf 136 612
2 -3 -57 -73 -79 0
-2 79 0
-2 3 0
-2 73 0
-2 57 0
3 -4 -13 -25 -34 0
-3 34 0
-3 4 0
-3 25 0
-3 13 0
4 -5 -8 -12 0
4 -5 -8 -11 0
-4 5 0
-4 8 0
-4 11 12 0
-5 108 116 6 7 0
-5 -108 -116 6 7 0
5 -6 0
5 108 -116 0
5 -7 0
5 -108 116 0
6 109 -117 0
6 -109 117 0
-6 -109 -117 0
-6 109 117 0
-7 -110 111 -118 119 0
-7 110 -111 118 -119 0
-7 110 111 118 119 0
-7 -110 -111 -118 -119 0
7 -110 118 0
7 110 -118 0
7 111 -119 0
7 -111 119 0
-8 98 110 9 10 0
-8 -98 -110 9 10 0
8 -9 0
8 98 -110 0
8 -10 0
8 -98 110 0
9 99 -111 0
9 -99 111 0
-9 -99 -111 0
-9 99 111 0
-10 -96 97 -108 109 0
-10 96 -97 108 -109 0
-10 96 97 108 109 0
-10 -96 -97 -108 -109 0
10 -96 108 0
10 96 -108 0
10 97 -109 0
10 -97 109 0
-11 -110 111 -126 127 0
-11 110 -111 126 -127 0
-11 110 111 126 127 0
-11 -110 -111 -126 -127 0
11 -110 126 0
11 110 -126 0
11 111 -127 0
11 -111 127 0
-12 -108 109 -124 125 0
-12 108 -109 124 -125 0
-12 108 109 124 125 0
-12 -108 -109 -124 -125 0
12 -108 124 0
12 108 -124 0
12 109 -125 0
12 -109 125 0
13 -14 -20 -24 0
13 -14 -20 -23 0
-13 14 0
-13 20 0
-13 23 24 0
14 -15 -18 0
14 118 -126 -15 0
14 -118 126 -15 0
-14 15 0
-14 118 126 18 0
-14 -118 -126 18 0
-15 127 131 16 17 0
-15 -127 -131 16 17 0
15 -16 0
15 127 -131 0
15 -17 0
15 -127 131 0
16 126 -130 0
16 -126 130 0
-16 -126 -130 0
-16 126 130 0
-17 -124 125 -128 129 0
-17 124 -125 128 -129 0
-17 124 125 128 129 0
-17 -124 -125 -128 -129 0
17 -124 128 0
17 124 -128 0
17 125 -129 0
17 -125 129 0
-18 -119 -127 19 0
-18 119 127 19 0
18 -19 0
18 -119 127 0
18 119 -127 0
-19 -116 117 -124 125 0
-19 116 -117 124 -125 0
-19 116 117 124 125 0
-19 -116 -117 -124 -125 0
19 -116 124 0
19 116 -124 0
19 117 -125 0
19 -117 125 0
-20 102 110 21 22 0
-20 -102 -110 21 22 0
20 -21 0
20 102 -110 0
20 -22 0
20 -102 110 0
21 103 -111 0
21 -103 111 0
-21 -103 -111 0
-21 103 111 0
-22 -100 101 -108 109 0
-22 100 -101 108 -109 0
-22 100 101 108 109 0
-22 -100 -101 -108 -109 0
22 -100 108 0
22 100 -108 0
22 101 -109 0
22 -101 109 0
-23 -96 97 -112 113 0
-23 96 -97 112 -113 0
-23 96 97 112 113 0
-23 -96 -97 -112 -113 0
23 -96 112 0
23 96 -112 0
23 97 -113 0
23 -97 113 0
-24 -98 99 -114 115 0
-24 98 -99 114 -115 0
-24 98 99 114 115 0
-24 -98 -99 -114 -115 0
24 -98 114 0
24 98 -114 0
24 99 -115 0
24 -99 115 0
25 -26 -29 -31 0
25 -26 -30 -31 0
-25 26 0
-25 31 0
-25 29 30 0
-26 96 27 28 0
-26 -116 27 28 0
26 -28 0
26 -27 0
26 -96 116 0
-27 -96 97 117 0
-27 -97 116 -117 0
-27 -96 -97 -117 0
-27 97 116 117 0
27 97 -117 0
27 -97 117 0
27 96 -116 0
-28 -98 99 -118 119 0
-28 98 -99 118 -119 0
-28 98 99 118 119 0
-28 -98 -99 -118 -119 0
28 -98 118 0
28 98 -118 0
28 99 -119 0
28 -99 119 0
-29 -102 103 -118 119 0
-29 102 -103 118 -119 0
-29 102 103 118 119 0
-29 -102 -103 -118 -119 0
29 -102 118 0
29 102 -118 0
29 103 -119 0
29 -103 119 0
-30 -100 101 -116 117 0
-30 100 -101 116 -117 0
-30 100 101 116 117 0
-30 -100 -101 -116 -117 0
30 -100 116 0
30 100 -116 0
30 101 -117 0
30 -101 117 0
-31 100 104 32 33 0
-31 -100 -104 32 33 0
31 -33 0
31 -100 104 0
31 -32 0
31 100 -104 0
-32 -101 102 -105 0
-32 101 102 105 0
-32 101 105 -106 0
-32 -101 -105 -106 0
32 -101 105 0
32 101 -105 0
32 -102 106 0
-33 -102 103 107 0
-33 -103 106 -107 0
-33 -102 -103 -107 0
-33 103 106 107 0
33 103 -107 0
33 -103 107 0
33 102 -106 0
34 -35 -51 -52 0
34 -35 -50 -52 0
-34 52 0
-34 35 0
-34 50 51 0
35 -36 -39 -44 -47 0
-35 39 0
-35 47 0
-35 36 0
-35 44 0
-36 106 122 37 38 0
-36 -106 -122 37 38 0
36 -37 0
36 106 -122 0
36 -38 0
36 -106 122 0
37 107 -123 0
37 -107 123 0
-37 -107 -123 0
-37 107 123 0
-38 -104 105 -120 121 0
-38 104 -105 120 -121 0
-38 104 105 120 121 0
-38 -104 -105 -120 -121 0
38 -104 120 0
38 104 -120 0
38 105 -121 0
38 -105 121 0
39 -41 -42 0
39 -40 -43 0
39 -41 -43 0
39 -40 -42 0
-39 40 41 0
-39 42 43 0
-40 -102 103 -126 127 0
-40 102 -103 126 -127 0
-40 102 103 126 127 0
-40 -102 -103 -126 -127 0
40 -102 126 0
40 102 -126 0
40 103 -127 0
40 -103 127 0
-41 -100 101 -124 125 0
-41 100 -101 124 -125 0
-41 100 101 124 125 0
-41 -100 -101 -124 -125 0
41 -100 124 0
41 100 -124 0
41 101 -125 0
41 -101 125 0
-42 -114 115 -118 119 0
-42 114 -115 118 -119 0
-42 114 115 118 119 0
-42 -114 -115 -118 -119 0
42 -114 118 0
42 114 -118 0
42 115 -119 0
42 -115 119 0
-43 -112 113 -116 117 0
-43 112 -113 116 -117 0
-43 112 113 116 117 0
-43 -112 -113 -116 -117 0
43 -112 116 0
43 112 -116 0
43 113 -117 0
43 -113 117 0
-44 104 124 45 46 0
-44 -104 -124 45 46 0
44 -45 0
44 104 -124 0
44 -46 0
44 -104 124 0
45 105 -125 0
45 -105 125 0
-45 -105 -125 0
-45 105 125 0
-46 -106 107 -126 127 0
-46 106 -107 126 -127 0
-46 106 107 126 127 0
-46 -106 -107 -126 -127 0
46 -106 126 0
46 106 -126 0
46 107 -127 0
46 -107 127 0
-47 106 118 48 49 0
-47 -106 -118 48 49 0
47 -48 0
47 106 -118 0
47 -49 0
47 -106 118 0
48 107 -119 0
48 -107 119 0
-48 -107 -119 0
-48 107 119 0
-49 -104 105 -116 117 0
-49 104 -105 116 -117 0
-49 104 105 116 117 0
-49 -104 -105 -116 -117 0
49 -104 116 0
49 104 -116 0
49 105 -117 0
49 -105 117 0
-50 -102 103 -114 115 0
-50 102 -103 114 -115 0
-50 102 103 114 115 0
-50 -102 -103 -114 -115 0
50 -102 114 0
50 102 -114 0
50 103 -115 0
50 -103 115 0
-51 -100 101 -112 113 0
-51 100 -101 112 -113 0
-51 100 101 112 113 0
-51 -100 -101 -112 -113 0
51 -100 112 0
51 100 -112 0
51 101 -113 0
51 -101 113 0
52 -53 55 56 0
52 -54 55 56 0
-52 -56 0
-52 -55 0
-52 53 54 0
-53 -114 115 -126 127 0
-53 114 -115 126 -127 0
-53 114 115 126 127 0
-53 -114 -115 -126 -127 0
53 -114 126 0
53 114 -126 0
53 115 -127 0
53 -115 127 0
-54 -112 113 -124 125 0
-54 112 -113 124 -125 0
-54 112 113 124 125 0
-54 -112 -113 -124 -125 0
54 -112 124 0
54 112 -124 0
54 113 -125 0
54 -113 125 0
-55 -114 115 -130 131 0
-55 114 -115 130 -131 0
-55 114 115 130 131 0
-55 -114 -115 -130 -131 0
55 -114 130 0
55 114 -130 0
55 115 -131 0
55 -115 131 0
-56 -112 113 -128 129 0
-56 112 -113 128 -129 0
-56 112 113 128 129 0
-56 -112 -113 -128 -129 0
56 -112 128 0
56 112 -128 0
56 113 -129 0
56 -113 129 0
57 -58 -64 -67 -70 0
-57 70 0
-57 67 0
-57 58 0
-57 64 0
58 -59 -61 0
58 -113 121 -61 0
58 113 -121 -61 0
-58 61 0
-58 113 121 59 0
-58 -113 -121 59 0
-59 -112 -120 60 0
-59 112 120 60 0
59 -60 0
59 -112 120 0
59 112 -120 0
-60 -114 115 -122 123 0
-60 114 -115 122 -123 0
-60 114 115 122 123 0
-60 -114 -115 -122 -123 0
60 -114 122 0
60 114 -122 0
60 115 -123 0
60 -115 123 0
-61 109 113 62 63 0
-61 -109 -113 62 63 0
61 -62 0
61 109 -113 0
61 -63 0
61 -109 113 0
62 108 -112 0
62 -108 112 0
-62 -108 -112 0
-62 108 112 0
-63 -110 111 -114 115 0
-63 110 -111 114 -115 0
-63 110 111 114 115 0
-63 -110 -111 -114 -115 0
63 -110 114 0
63 110 -114 0
63 111 -115 0
63 -111 115 0
-64 102 65 66 0
-64 -122 65 66 0
64 -66 0
64 -65 0
64 -102 122 0
-65 -102 103 123 0
-65 -103 122 -123 0
-65 -102 -103 -123 0
-65 103 122 123 0
65 103 -123 0
65 -103 123 0
65 102 -122 0
-66 -100 101 -120 121 0
-66 100 -101 120 -121 0
-66 100 101 120 121 0
-66 -100 -101 -120 -121 0
66 -100 120 0
66 100 -120 0
66 101 -121 0
66 -101 121 0
-67 104 108 68 69 0
-67 -104 -108 68 69 0
67 -68 0
67 104 -108 0
67 -69 0
67 -104 108 0
68 105 -109 0
68 -105 109 0
-68 -105 -109 0
-68 105 109 0
-69 -106 107 -110 111 0
-69 106 -107 110 -111 0
-69 106 107 110 111 0
-69 -106 -107 -110 -111 0
69 -106 110 0
69 106 -110 0
69 107 -111 0
69 -107 111 0
-70 118 122 71 72 0
-70 -118 -122 71 72 0
70 -71 0
70 118 -122 0
70 -72 0
70 -118 122 0
71 119 -123 0
71 -119 123 0
-71 -119 -123 0
-71 119 123 0
-72 -116 117 -120 121 0
-72 116 -117 120 -121 0
-72 116 117 120 121 0
-72 -116 -117 -120 -121 0
72 -116 120 0
72 116 -120 0
72 117 -121 0
72 -117 121 0
73 -74 -76 0
73 -105 113 -76 0
73 105 -113 -76 0
-73 76 0
-73 105 113 74 0
-73 -105 -113 74 0
-74 -104 -112 75 0
-74 104 112 75 0
74 -75 0
74 -104 112 0
74 104 -112 0
-75 -106 107 -114 115 0
-75 106 -107 114 -115 0
-75 106 107 114 115 0
-75 -106 -107 -114 -115 0
75 -106 114 0
75 106 -114 0
75 107 -115 0
75 -107 115 0
-76 110 122 77 78 0
-76 -110 -122 77 78 0
76 -77 0
76 110 -122 0
76 -78 0
76 -110 122 0
77 111 -123 0
77 -111 123 0
-77 -111 -123 0
-77 111 123 0
-78 -108 109 -120 121 0
-78 108 -109 120 -121 0
-78 108 109 120 121 0
-78 -108 -109 -120 -121 0
78 -108 120 0
78 108 -120 0
78 109 -121 0
78 -109 121 0
79 -80 -83 -85 0
79 -80 -84 -85 0
-79 80 0
-79 85 0
-79 83 84 0
-80 123 127 81 82 0
-80 -123 -127 81 82 0
80 -82 0
80 -123 127 0
80 -81 0
80 123 -127 0
-81 -122 -126 0
-81 122 126 0
81 122 -126 0
81 -122 126 0
-82 -120 121 -124 125 0
-82 120 -121 124 -125 0
-82 120 121 124 125 0
-82 -120 -121 -124 -125 0
82 -120 124 0
82 120 -124 0
82 121 -125 0
82 -121 125 0
-83 -96 97 -120 121 0
-83 96 -97 120 -121 0
-83 96 97 120 121 0
-83 -96 -97 -120 -121 0
83 -96 120 0
83 96 -120 0
83 97 -121 0
83 -97 121 0
-84 -98 99 -122 123 0
-84 98 -99 122 -123 0
-84 98 99 122 123 0
-84 -98 -99 -122 -123 0
84 -98 122 0
84 98 -122 0
84 99 -123 0
84 -99 123 0
85 -86 -91 -95 0
85 -86 -91 -94 0
-85 86 0
-85 91 0
-85 94 95 0
86 -88 -89 0
86 -87 -90 0
86 -88 -90 0
86 -87 -89 0
-86 87 88 0
-86 89 90 0
-87 -98 99 -106 107 0
-87 98 -99 106 -107 0
-87 98 99 106 107 0
-87 -98 -99 -106 -107 0
87 -98 106 0
87 98 -106 0
87 99 -107 0
87 -99 107 0
-88 -96 97 -104 105 0
-88 96 -97 104 -105 0
-88 96 97 104 105 0
-88 -96 -97 -104 -105 0
88 -96 104 0
88 96 -104 0
88 97 -105 0
88 -97 105 0
-89 -100 101 -132 133 0
-89 100 -101 132 -133 0
-89 100 101 132 133 0
-89 -100 -101 -132 -133 0
89 -100 132 0
89 100 -132 0
89 101 -133 0
89 -101 133 0
-90 -102 103 -134 135 0
-90 102 -103 134 -135 0
-90 102 103 134 135 0
-90 -102 -103 -134 -135 0
90 -102 134 0
90 102 -134 0
90 103 -135 0
90 -103 135 0
-91 97 101 92 93 0
-91 -97 -101 92 93 0
91 -93 0
91 -97 101 0
91 -92 0
91 97 -101 0
-92 -96 -100 0
-92 96 100 0
92 96 -100 0
92 -96 100 0
-93 -98 99 -102 103 0
-93 98 -99 102 -103 0
-93 98 99 102 103 0
-93 -98 -99 -102 -103 0
93 -98 102 0
93 98 -102 0
93 99 -103 0
93 -99 103 0
-94 -98 99 -126 127 0
-94 98 -99 126 -127 0
-94 98 99 126 127 0
-94 -98 -99 -126 -127 0
94 -98 126 0
94 98 -126 0
94 99 -127 0
94 -99 127 0
-95 -96 97 -124 125 0
-95 96 -97 124 -125 0
-95 96 97 124 125 0
-95 -96 -97 -124 -125 0
95 -96 124 0
95 96 -124 0
95 97 -125 0
95 -97 125 0
-136 0
2 0

